CR = {CR1, CR2, CR3, CR4, CR5, CR6, CR7, CR8, CR9, CR10, CR17, CR16, CR15, CR14, CR13, CR12, CR11, CR27};

ASSET = {F_35, RQ_9, Tornado_ECR, RQ_4A, RQ_4D, MQ_1B, Lanza_LTR_35};

INTELL = {EO, IR, MTI, SAR, FMV, SIGINT, ELINT};

NAI = {'6012884827252927', '6012921727253481', '6012915227253638', '6071333630115474', '6092428726131586', '6071320430114297', '6071408130114972', '6053093527243154', '6071301030115182', '6063536527226914', '6115483928990382', '6095921729116306', '6095864129116663', '6095881629115503', '6095800929116202', '6095778029115702', '6095822029115388', '6095834529115767'};

BASE = {'61042497281418'};

crl = [CR1, CR2, CR3, CR4, CR5, CR6, CR7, CR8, CR9, CR10, CR17, CR16, CR15, CR14, CR13, CR12, CR11, CR27];

asset_list = [F_35, RQ_9, Tornado_ECR, RQ_4A, RQ_4D, MQ_1B, Lanza_LTR_35];

nai_list = ['6012884827252927', '6012921727253481', '6012915227253638', '6071333630115474', '6092428726131586', '6071320430114297', '6071408130114972', '6053093527243154', '6071301030115182', '6063536527226914', '6115483928990382', '6095921729116306', '6095864129116663', '6095881629115503', '6095800929116202', '6095778029115702', '6095822029115388', '6095834529115767'];

base_list = ['61042497281418'];

required_int = [SAR, MTI, EO, MTI, EO, MTI, EO, FMV, EO, FMV, EO, EO, MTI, EO, MTI, EO, MTI, MTI];

priority = [1, 1, 1, 1, 1, 1, 1, 1, 1, 1, 1, 1, 1, 1, 1, 1, 1, 1];

location = ['6012884827252927', '6012921727253481', '6012915227253638', '6071333630115474', '6092428726131586', '6071320430114297', '6071408130114972', '6053093527243154', '6071301030115182', '6063536527226914', '6115483928990382', '6095921729116306', '6095864129116663', '6095881629115503', '6095800929116202', '6095778029115702', '6095822029115388', '6095834529115767'];

location_int = [1, 2, 3, 4, 5, 6, 7, 8, 9, 10, 11, 12, 13, 14, 15, 16, 17, 18];

required_start_time = [900, 900, 900, 900, 930, 960, 960, 540, 540, 540, 660, 600, 600, 600, 600, 600, 600, 930];

required_duration = [30, 30, 30, 30, 30, 30, 30, 30, 30, 60, 30, 90, 90, 30, 30, 30, 30, 30];

ops_start_time = [900, 900, 900, 900, 930, 960, 960, 540, 540, 540, 660, 600, 600, 600, 600, 600, 600, 930];

ops_duration = [30, 30, 30, 30, 30, 30, 30, 30, 30, 60, 30, 90, 90, 30, 30, 30, 30, 30];

sensor = [| 1, 1, 1, 1, 1, 1, 1
| 1, 1, 1, 1, 1, 1, 1
| 1, 1, 1, 1, 1, 1, 1
| 1, 1, 1, 1, 1, 1, 1
| 1, 1, 1, 1, 1, 1, 1
| 1, 1, 1, 1, 1, 1, 1
| 1, 1, 1, 1, 1, 1, 1|];

capacity = [1440, 1440, 1440, 1440, 1440, 1440, 1440];

on_station = [0, 0, 0, 0, 0, 0, 0];

home = ['61042497281418', '61042497281418', '61042497281418', '61042497281418', '61042497281418', '61042497281418', '61042497281418'];

home_int = [|1
|1
|1
|1
|1
|1
|1
|];

cost = [|0, 0, 0, 33, 21, 33, 33, 9, 33, 11, 29, 27, 27, 27, 27, 27, 27, 27, 22, 
|0, 0, 0, 33, 21, 33, 33, 9, 33, 11, 29, 27, 27, 27, 27, 27, 27, 27, 22, 
|0, 0, 0, 33, 21, 33, 33, 9, 33, 11, 29, 27, 27, 27, 27, 27, 27, 27, 22, 
|33, 33, 33, 0, 42, 0, 0, 31, 0, 31, 15, 12, 12, 12, 12, 12, 12, 12, 22, 
|21, 21, 21, 42, 0, 42, 42, 15, 42, 13, 30, 31, 31, 31, 31, 31, 31, 31, 21, 
|33, 33, 33, 0, 42, 0, 0, 31, 0, 31, 15, 12, 12, 12, 12, 12, 12, 12, 22, 
|33, 33, 33, 0, 42, 0, 0, 31, 0, 31, 15, 12, 12, 12, 12, 12, 12, 12, 22, 
|9, 9, 9, 31, 15, 31, 31, 0, 31, 3, 23, 22, 22, 22, 22, 22, 22, 22, 15, 
|33, 33, 33, 0, 42, 0, 0, 31, 0, 31, 15, 12, 12, 12, 12, 12, 12, 12, 22, 
|11, 11, 11, 31, 13, 31, 31, 3, 31, 0, 22, 21, 21, 21, 21, 21, 21, 21, 13, 
|29, 29, 29, 15, 30, 15, 15, 23, 15, 22, 0, 5, 5, 5, 5, 5, 5, 5, 10, 
|27, 27, 27, 12, 31, 12, 12, 22, 12, 21, 5, 0, 0, 0, 0, 0, 0, 0, 11, 
|27, 27, 27, 12, 31, 12, 12, 22, 12, 21, 5, 0, 0, 0, 0, 0, 0, 0, 11, 
|27, 27, 27, 12, 31, 12, 12, 22, 12, 21, 5, 0, 0, 0, 0, 0, 0, 0, 11, 
|27, 27, 27, 12, 31, 12, 12, 22, 12, 21, 5, 0, 0, 0, 0, 0, 0, 0, 11, 
|27, 27, 27, 12, 31, 12, 12, 22, 12, 21, 5, 0, 0, 0, 0, 0, 0, 0, 11, 
|27, 27, 27, 12, 31, 12, 12, 22, 12, 21, 5, 0, 0, 0, 0, 0, 0, 0, 11, 
|27, 27, 27, 12, 31, 12, 12, 22, 12, 21, 5, 0, 0, 0, 0, 0, 0, 0, 11, 
|22, 22, 22, 22, 21, 22, 22, 15, 22, 13, 10, 11, 11, 11, 11, 11, 11, 11, 0|];

